(set-logic ALL)
(synth-fun P ((a (Array (_ BitVec 8) (_ BitVec 8))) (b (Array (_ BitVec 8) (_ BitVec 8))) (x (_ BitVec 8)) (y (_ BitVec 8)) (z (_ BitVec 4))) Bool
((Start Bool) (StartArray (Array (_ BitVec 8) (_ BitVec 8))) (StartBv (_ BitVec 8)) (StartBv4 (_ BitVec 4)))
(
(Start Bool (
  (= StartArray StartArray)
  (= StartBv StartBv)
  (or Start Start)
  (bvuge StartBv StartBv)
  ))
(StartArray (Array (_ BitVec 8) (_ BitVec 8)) (
  a b (store StartArray StartBv StartBv)
  (ite Start StartArray StartArray)
  ))
(StartBv (_ BitVec 8) (
  x y #x00 #x01 (bvadd StartBv StartBv) (bvsub StartBv StartBv) (bvmul StartBv StartBv) (bvand StartBv StartBv)
  (select StartArray StartBv) (concat StartBv4 StartBv4)
  (ite Start StartBv StartBv)
))
(StartBv4 (_ BitVec 4) (
  z #x0 #x1 (bvadd StartBv4 StartBv4) (bvsub StartBv4 StartBv4) (bvmul StartBv4 StartBv4) (bvand StartBv4 StartBv4)
  ((_ extract 7 4) StartBv) ((_ extract 3 0) StartBv)
  (ite Start StartBv4 StartBv4)
))
))


(check-synth)
